nP = 3;
nT = 7;
nC1 = 8;
nC2 = 15;
nA = 51;
nD = 3;

arc_from = [1, 2, 2, 1, 2, 2, 1, 2, 1, 3, 4, 4, 5, 6, 6, 7, 7, 8, 8, 8, 9, 9, 10, 10, 13, 15, 15, 14, 16, 14, 15, 18, 15, 11, 12, 17, 15, 11, 11, 11, 11, 12, 12, 13, 13, 14, 14, 16, 17, 18, 18];
arc_to = [4, 4, 5, 6, 6, 7, 7, 8, 9, 10, 13, 18, 14, 15, 12, 15, 18, 11, 16, 15, 12, 18, 12, 11, 19, 20, 21, 22, 23, 24, 25, 26, 27, 28, 29, 30, 31, 32, 33, 31, 21, 21, 30, 27, 30, 27, 19, 27, 32, 28, 27];

supply = [358.83, 358.83, 358.83, 0.00, 0.00, 0.00, 0.00, 0.00, 0.00, 0.00, 0.00, 0.00, 0.00, 0.00, 0.00, 0.00, 0.00, 0.00, 0.00, 0.00, 0.00, 0.00, 0.00, 0.00, 0.00, 0.00, 0.00, 0.00, 0.00, 0.00, 0.00, 0.00, 0.00];
demand = [0.00, 0.00, 0.00, 0.00, 0.00, 0.00, 0.00, 0.00, 0.00, 0.00, 20.80, 26.89, 23.36, 23.03, 24.89, 20.00, 23.41, 22.67, 37.61, 51.61, 36.26, 38.10, 45.24, 46.64, 38.97, 36.96, 50.39, 39.16, 45.23, 45.66, 42.17, 45.04, 43.98];

max_capacity = [795, 1414, 3181];

install_cost = array2d(1..nA, 1..nD, [
  20, 24, 32,
  50, 62, 78,
  20, 24, 32,
  50, 62, 78,
  20, 24, 32,
  50, 62, 78,
  20, 24, 32,
  50, 62, 78,
  20, 24, 32,
  50, 62, 78,
  20, 24, 32,
  50, 62, 78,
  20, 24, 32,
  50, 62, 78,
  20, 24, 32,
  50, 62, 78,
  20, 24, 32,
  50, 62, 78,
  20, 24, 32,
  50, 62, 78,
  20, 24, 32,
  50, 62, 78,
  20, 24, 32,
  50, 62, 78,
  20, 24, 32,
  50, 62, 78,
  20, 24, 32,
  50, 62, 78,
  20, 24, 32,
  50, 62, 78,
  20, 24, 32,
  50, 62, 78,
  20, 24, 32,
  50, 62, 78,
  20, 24, 32,
  50, 62, 78,
  20, 24, 32,
  50, 62, 78,
  20, 24, 32,
  50, 62, 78,
  20, 24, 32,
  50, 62, 78,
  20, 24, 32,
  50, 62, 78,
  20, 24, 32,
  50, 62, 78,
  20, 24, 32,
  50, 62, 78,
  20, 24, 32,
  50, 62, 78,
  20, 24, 32
]);

trans_cost = [3.90, 6.88, 9.29, 4.51, 5.15, 6.15, 5.24, 3.67, 6.10, 4.41, 6.71, 4.62, 8.32, 4.83, 5.52, 7.22, 4.15, 6.34, 7.96, 3.59, 6.28, 6.39, 7.17, 4.14, 4.02, 6.78, 6.45, 6.38, 6.52, 4.98, 6.35, 6.44, 4.93, 8.80, 6.71, 4.21, 6.98, 4.54, 7.18, 7.74, 4.77, 7.45, 6.62, 7.23, 8.85, 5.63, 4.87, 4.67, 4.78, 5.88, 6.51];

% Metadata: {'tamaño': 'pequeñas', 'numero': 4, 'grupo': 5, 'demanda_total': 828.07, 'suministro_total': 1076.49, 'factor_holgura': 1.3, 'num_arcos': 51, 'conectividad': {'plantas_tanques': 10, 'tanques_transbordo': 14, 'transbordo_finales': 27}}
% Total supply: 1076.49
% Total demand: 828.07
% Balance factor: 1.30
